webassembly/ejemplos_dzn/folder10_json_78.dzn
TERM = { '.', 's(5)', 's(2)', 's(4)', 'in_1', 'in_2', 'in_3', 's(6)', 's(1)', 's(0)', 's(7)', 's(3)', 'in_0'};
null = '.';
s = 10;
n = 9;
ndeps = 6;
max_registers_sz = 3;
NR = 0;
registers = [| |];
dependencies = [|'i32.load_1', 'i32.store_6', |'i32.store_6', 'i32.store8_8', |'i32.store8_8', 'i32.load8_s_9', |'i32.load16_s_3', 'i32.store_6', |'i32.load16_u_4', 'i32.store_6', |'i32.load16_s_5', 'i32.store_6'|];
GET_ENUM = { GET1, GET2, GET3};
SET_ENUM = { SET1, SET2, SET3};
TEE_ENUM = { TEE1, TEE2, TEE3};
N = 10;
OP = { 'i32.add_0', 'i32.load_1', 'i32.const_0', 'i32.load16_s_3', 'i32.load16_u_4', 'i32.load16_s_5', 'i32.store_6', 'i32.const_1', 'i32.store8_8', 'i32.load8_s_9' };
in_ops = [2, 1, 0, 1, 1, 1, 2, 0, 2, 1 ];
out_ops = [1, 1, 1, 1, 1, 1, 0, 1, 0, 1 ];
in1 = ['in_0', 's(0)', '.', 's(6)', 's(2)', 's(3)', 's(4)', '.', 's(7)', 'in_3' ];
in2 = ['in_1', '.', '.', '.', '.', '.', 's(1)', '.', 'in_2', '.' ];
in3 = ['.', '.', '.', '.', '.', '.', '.', '.', '.', '.' ];
out1 = ['s(0)', 's(1)', 's(6)', 's(2)', 's(3)', 's(4)', '.', 's(7)', '.', 's(5)' ];
out2 = ['.', '.', '.', '.', '.', '.', '.', '.', '.', '.' ];
out3 = ['.', '.', '.', '.', '.', '.', '.', '.', '.', '.' ];
comm = [true, false, false, false, false, false, false, false, false, false ];
gas = [1, 1, 1, 1, 1, 1, 1, 1, 1, 1 ];
sz = [1, 1, 1, 1, 1, 1, 1, 1, 1, 1 ];
stor = [false, false, false, false, false, false, true, false, true, false ];
lb = [ 1, 1, 1, 1, 1, 1, 1, 1, 1, 1 ];
ub = [ 10, 10, 10, 10, 10, 10, 10, 10, 10, 10 ];
startstack = [ 'in_0', 'in_1', 'in_2', 'in_3', null, null, null, null, null ];
endstack = [ 's(5)', null, null, null, null, null, null, null, null ];
