webassembly/ejemplos_results/10/folder10_json_78.txt
value = 10;
fgas = [1, 1, 1, 1, 1, 1, 1, 1, 1, 1];
fsize = [1, 1, 1, 1, 1, 1, 1, 1, 1, 1];
states = 
[|   in_0,   in_1, in_2, in_3, '.', '.', '.', '.',    '.'
 | 's(0)',   in_2, in_3,  '.', '.', '.', '.', '.',   in_1
 | 's(1)',   in_2, in_3,  '.', '.', '.', '.', '.', 's(3)'
 | 's(6)', 's(1)', in_2, in_3, '.', '.', '.', '.',    '.'
 | 's(2)', 's(1)', in_2, in_3, '.', '.', '.', '.',   in_0
 | 's(3)', 's(1)', in_2, in_3, '.', '.', '.', '.',   in_0
 | 's(4)', 's(1)', in_2, in_3, '.', '.', '.', '.',   in_0
 |   in_2,   in_3,  '.',  '.', '.', '.', '.', '.',   in_0
 | 's(7)',   in_2, in_3,  '.', '.', '.', '.', '.',    '.'
 |   in_3,    '.',  '.',  '.', '.', '.', '.', '.',   in_0
 | 's(5)',    '.',  '.',  '.', '.', '.', '.', '.',    '.'
 |];
register_states = 
[| '.', '.', '.'
 | '.', '.', '.'
 | '.', '.', '.'
 | '.', '.', '.'
 | '.', '.', '.'
 | '.', '.', '.'
 | '.', '.', '.'
 | '.', '.', '.'
 | '.', '.', '.'
 | '.', '.', '.'
 | '.', '.', '.'
 |];
program = [O('i32.add_0'), O('i32.load_1'), O('i32.const_0'), O('i32.load16_s_3'), O('i32.load16_u_4'), O('i32.load16_s_5'), O('i32.store_6'), O('i32.const_1'), O('i32.store8_8'), O('i32.load8_s_9')];
% time elapsed: 0.12 s
----------
==========
% time elapsed: 0.13 s
% [value > 9]
